db/data/51131879116575253232095226982104219081.z3.out
sat
-------------------
194.767881926
